sat
(:arith-bound-propagations-cheap  20
 :arith-bound-propagations-lp     8
 :arith-conflicts                 4
 :arith-eq                        702
 :arith-fixed-eqs                 25
 :arith-gcd-calls                 1
 :arith-grobner-calls             1
 :arith-horner-cross-nested-forms 307
 :arith-lower                     74
 :arith-make-feasible             275
 :arith-max-columns               844
 :arith-max-rows                  447
 :arith-nla-add-bounds            1
 :arith-nla-propagate-bounds      4
 :arith-offset-eqs                8
 :arith-patches                   1
 :arith-propagations              20
 :arith-upper                     498
 :elim-unconstrained              3
 :euf-final-check                 3
 :euf-merge                       1094
 :euf-propagations-eqs            12
 :euf-propagations-literal        5
 :euf-propagations-theory-diseqs  24
 :euf-propagations-theory-eqs     734
 :flatten-clauses-rewrites        120
 :max-memory                      56.76
 :memory                          18.01
 :num-allocs                      9227649
 :rlimit-count                    53297
 :sat-backjumps                   5
 :sat-conflicts                   5
 :sat-decisions                   260
 :sat-elim-literals               2
 :sat-mk-clause-2ary              4887
 :sat-mk-clause-nary              19
 :sat-mk-var                      363
 :sat-propagations-2ary           530
 :sat-propagations-nary           17
 :sat-units                       53
 :simplifier-steps                3946
 :sls-ddfw-flips                  1545.00
 :sls-ddfw-shifts                 38.00
 :solve-eqs-elim-vars             174
 :solve-eqs-steps                 1240
 :time                            0.08
 :total-time                      0.05)
